H4O48La4U20 : SG = 1 (P1), degeneracy = 
   1.0000000000000000     
     7.7622646904000003    0.0000000000000000    0.0000000000000000
     0.0000000000000000    7.7622646904000003    0.0000000000000000
     0.0000000000000000    0.0000000000000000   36.4662500000000023
   H    O    Gd   Ce   Gd   Ce
     4    48     2    10     2    10
Direct
  0.2428440725680928  0.9893849480738695  0.0300839172403778
  0.6261799709120549  0.2327400169571106  0.0316809063615786
  0.1211713290874087  0.5168312375855810  0.5282213053788269
  0.5066578398534113  0.7573073839330209  0.5299860110583040
  0.9976236136770523  0.2498002782733626  0.2021652029667193
  0.9983076735458912  0.7498632648606386  0.2021706771676955
  0.0017561729786637  0.7498827726682483  0.1251072979846492
  0.0005565637369086  0.2548679129103681  0.1232428004427056
  0.2501812383496251  0.5000839021678560  0.3565672681611304
  0.2577842591141566  0.4966301738448433  0.4319053723394919
  0.2498778346017462  0.0000126553196981  0.3583761249454767
  0.2511705329492546  0.0047556049741540  0.4373676204156196
  0.2632464369396842  0.5064230085534785  0.0615701318058407
  0.2315688873318974  0.9883294101126132  0.0565529677272631
  0.2496043864336468  0.5005419370985055  0.2815770778285030
  0.2495856522567264  0.9994561990366256  0.2815736945684356
  0.2497693971355455  0.5007661171096335  0.2074220556739095
  0.2497565860975943  0.9997010911757888  0.2065504912927836
  0.2455903909381878  0.5011684333405380  0.1342883539445959
  0.2443270866936774  0.0021143119294926  0.1320877460243269
  0.1462817886490756  0.5425173580140007  0.5027578169709239
  0.6028768843611090  0.2078656985758017  0.0572595513943368
  0.5043605973999358  0.2489500059516036  0.4257488137060951
  0.5056759774890611  0.7480952683862858  0.4280123261562434
  0.5004269786580446  0.7503694167639234  0.3535569838545570
  0.5004815547770262  0.2492370350367125  0.3525903468610457
  0.5007120774707475  0.7506181894547183  0.2784792410766183
  0.5007564140591316  0.2494237170799968  0.2784347706563814
  0.4987707600772367  0.7453178518627592  0.1226936748815471
  0.5002709824720464  0.7500343819074029  0.2017333496636546
  0.5000064562712415  0.2499033798584329  0.2034599881845522
  0.4923299082959547  0.2535522581184244  0.1281491135221950
  0.5181311576659333  0.7611093991046353  0.5035327627396828
  0.4867407873331233  0.2441316379616789  0.4984928084259255
  0.7484699751151117  0.0002981879460944  0.4350590268939855
  0.7494363206715362  0.4953976381919936  0.4367843689723869
  0.7525428707365380  0.5002718907682184  0.3579122028510351
  0.7519703548226091  0.0001278761366769  0.3579525202521801
  0.7507458432124370  0.9995469999586926  0.2810365902131030
  0.7506175770450765  0.5005425145267286  0.2819859733521100
  0.7488405342451926  0.5003485233519324  0.2064709695161194
  0.7489788653537345  0.9989180874451450  0.2044594240450714
  0.7469061558751230  0.9993576113846492  0.1275516540120026
  0.7716507723455549  0.5619047471522776  0.0617639541386149
  0.7499015030598344  0.4953131820445311  0.1329095914261980
  0.0012451639949990  0.7510842551197839  0.3555665812739929
  0.0012659748990939  0.2497129032209418  0.3536229598605542
  0.0000787362841646  0.2549836111389403  0.4272045085535520
  0.9783507358659831  0.1886783184566381  0.4983757709895080
  0.0030444322499559  0.7506808793254703  0.4325012645166688
  0.9996919076846400  0.2495332969433100  0.2780617848493552
  0.9995964544963171  0.7504817565857039  0.2790615632747130
  0.0099331256769539  0.0016212484641198  0.0975699275165342
  0.4830517515855969  0.0111470370600594  0.0957774483484786
  0.9978163341819568  0.5011553574347796  0.2422626566778188
  0.9993113741466245  0.9988253131785777  0.2417609717891663
  0.0090728858666681  0.5073797923235565  0.0912069477318083
  0.4989937337270063  0.0034691364952960  0.3931495339986766
  0.5009885631198699  0.4947472093922772  0.3923443178562935
  0.4999451745714815  0.0001722029836401  0.2421224047033731
  0.5013281533362324  0.4998038376282470  0.2426320905975663
  0.5129434933033987  0.4908008813880032  0.0894159307260318
  0.0028973223694388  0.5011792555139239  0.3938768116249177
  0.0039524339049258  0.0007943116483155  0.3950991031806218
  0.2668157284066813  0.7389608708578734  0.4643055765419672
  0.7399864626954263  0.7484447922739040  0.4625311211559253
  0.2491379212178248  0.2554089092629822  0.1677217297958599
  0.2511344384895076  0.7465901534827076  0.1669261645124421
  0.7461464970317844  0.7492781814056714  0.1649954296594067
  0.7472131953578220  0.2489412932386544  0.1661812938100161
  0.7509488661436744  0.7512060303163023  0.3183092742501117
  0.7524464632599800  0.2489013748715573  0.3178067935240412
  0.2489294984515368  0.2502133183109645  0.3174313230235147
  0.2503149208692954  0.7498493404621525  0.3179342245432221
  0.7409685208706345  0.2429465588618614  0.4688735468971573
  0.2369693598313279  0.2594133087123479  0.4706460841104361

  0.00000000E+00  0.00000000E+00  0.00000000E+00
  0.00000000E+00  0.00000000E+00  0.00000000E+00
  0.00000000E+00  0.00000000E+00  0.00000000E+00
  0.00000000E+00  0.00000000E+00  0.00000000E+00
  0.00000000E+00  0.00000000E+00  0.00000000E+00
  0.00000000E+00  0.00000000E+00  0.00000000E+00
  0.00000000E+00  0.00000000E+00  0.00000000E+00
  0.00000000E+00  0.00000000E+00  0.00000000E+00
  0.00000000E+00  0.00000000E+00  0.00000000E+00
  0.00000000E+00  0.00000000E+00  0.00000000E+00
  0.00000000E+00  0.00000000E+00  0.00000000E+00
  0.00000000E+00  0.00000000E+00  0.00000000E+00
  0.00000000E+00  0.00000000E+00  0.00000000E+00
  0.00000000E+00  0.00000000E+00  0.00000000E+00
  0.00000000E+00  0.00000000E+00  0.00000000E+00
  0.00000000E+00  0.00000000E+00  0.00000000E+00
  0.00000000E+00  0.00000000E+00  0.00000000E+00
  0.00000000E+00  0.00000000E+00  0.00000000E+00
  0.00000000E+00  0.00000000E+00  0.00000000E+00
  0.00000000E+00  0.00000000E+00  0.00000000E+00
  0.00000000E+00  0.00000000E+00  0.00000000E+00
  0.00000000E+00  0.00000000E+00  0.00000000E+00
  0.00000000E+00  0.00000000E+00  0.00000000E+00
  0.00000000E+00  0.00000000E+00  0.00000000E+00
  0.00000000E+00  0.00000000E+00  0.00000000E+00
  0.00000000E+00  0.00000000E+00  0.00000000E+00
  0.00000000E+00  0.00000000E+00  0.00000000E+00
  0.00000000E+00  0.00000000E+00  0.00000000E+00
  0.00000000E+00  0.00000000E+00  0.00000000E+00
  0.00000000E+00  0.00000000E+00  0.00000000E+00
  0.00000000E+00  0.00000000E+00  0.00000000E+00
  0.00000000E+00  0.00000000E+00  0.00000000E+00
  0.00000000E+00  0.00000000E+00  0.00000000E+00
  0.00000000E+00  0.00000000E+00  0.00000000E+00
  0.00000000E+00  0.00000000E+00  0.00000000E+00
  0.00000000E+00  0.00000000E+00  0.00000000E+00
  0.00000000E+00  0.00000000E+00  0.00000000E+00
  0.00000000E+00  0.00000000E+00  0.00000000E+00
  0.00000000E+00  0.00000000E+00  0.00000000E+00
  0.00000000E+00  0.00000000E+00  0.00000000E+00
  0.00000000E+00  0.00000000E+00  0.00000000E+00
  0.00000000E+00  0.00000000E+00  0.00000000E+00
  0.00000000E+00  0.00000000E+00  0.00000000E+00
  0.00000000E+00  0.00000000E+00  0.00000000E+00
  0.00000000E+00  0.00000000E+00  0.00000000E+00
  0.00000000E+00  0.00000000E+00  0.00000000E+00
  0.00000000E+00  0.00000000E+00  0.00000000E+00
  0.00000000E+00  0.00000000E+00  0.00000000E+00
  0.00000000E+00  0.00000000E+00  0.00000000E+00
  0.00000000E+00  0.00000000E+00  0.00000000E+00
  0.00000000E+00  0.00000000E+00  0.00000000E+00
  0.00000000E+00  0.00000000E+00  0.00000000E+00
  0.00000000E+00  0.00000000E+00  0.00000000E+00
  0.00000000E+00  0.00000000E+00  0.00000000E+00
  0.00000000E+00  0.00000000E+00  0.00000000E+00
  0.00000000E+00  0.00000000E+00  0.00000000E+00
  0.00000000E+00  0.00000000E+00  0.00000000E+00
  0.00000000E+00  0.00000000E+00  0.00000000E+00
  0.00000000E+00  0.00000000E+00  0.00000000E+00
  0.00000000E+00  0.00000000E+00  0.00000000E+00
  0.00000000E+00  0.00000000E+00  0.00000000E+00
  0.00000000E+00  0.00000000E+00  0.00000000E+00
  0.00000000E+00  0.00000000E+00  0.00000000E+00
  0.00000000E+00  0.00000000E+00  0.00000000E+00
  0.00000000E+00  0.00000000E+00  0.00000000E+00
  0.00000000E+00  0.00000000E+00  0.00000000E+00
  0.00000000E+00  0.00000000E+00  0.00000000E+00
  0.00000000E+00  0.00000000E+00  0.00000000E+00
  0.00000000E+00  0.00000000E+00  0.00000000E+00
  0.00000000E+00  0.00000000E+00  0.00000000E+00
  0.00000000E+00  0.00000000E+00  0.00000000E+00
  0.00000000E+00  0.00000000E+00  0.00000000E+00
  0.00000000E+00  0.00000000E+00  0.00000000E+00
  0.00000000E+00  0.00000000E+00  0.00000000E+00
  0.00000000E+00  0.00000000E+00  0.00000000E+00
  0.00000000E+00  0.00000000E+00  0.00000000E+00
